unsat
(:cnf-encoding-aux-vars 124
 :eliminated-vars       99
 :max-memory            20.44
 :memory                19.14
 :nlsat-conflicts       11
 :nlsat-decisions       80
 :nlsat-learned-added   10
 :nlsat-propagations    99
 :num-allocs            2291586
 :rlimit-count          1527807
 :time                  3.36
 :total-time            3.38)
